1039	654	774	1125	267	555	461	940	363	863
903	995	430	72	355	0	171	1077	816	1171
144	227	984	1039	899	469	397	821	83	0
827	457	304	626	527	761	686	50	1003	940
363	821	524	0	98	686	591	754	268	186
1125	0	604	860	186	267	331	684	524	798
624	99	863	527	430	929	1028	0	719	1100
562	304	253	171	0	375	98	477	624	719
0	518	684	311	774	850	240	392	908	1003
303	375	1124	253	984	1065	761	562	457	618
